50
6832

689 406
879 972
490 555
551 224
366 806
872 499
550 152
982 190
617 862
576 931
653 107
296 878
987 165
597 707
544 174
788 295
988 821
146 326
324 573
422 61
6 907
166 416
367 553
309 16
227 95
903 404
63 502
927 778
252 151
344 230
228 747
217 846
530 593
509 785
710 882
754 635
650 774
408 704
755 992
184 132
843 72
314 367
41 215
694 905
452 280
358 863
439 424
630 408
330 211
125 441
